NAME : pairopt.-194633.tour
COMMENT : Length = -194633
COMMENT : Found by LKH-3 [Keld Helsgaun] Mon May  1 21:50:04 2023
TYPE : TOUR
DIMENSION : 15
TOUR_SECTION
1
2
11
8
12
14
13
10
15
3
7
6
5
4
9
-1
EOF
